(declare-const c_0 Real)
(declare-const c_1 Real)
(declare-const c_2 Real)
(declare-const c_3 Real)
(declare-const c_4 Real)
(declare-const c_5 Real)
(declare-const c_6 Real)
(declare-const c_7 Real)
(declare-const c_8 Real)
(declare-const s_0 Real)
(declare-const s_1 Real)
(declare-const s_2 Real)
(declare-const s_3 Real)
(declare-const s_4 Real)
(declare-const s_5 Real)
(declare-const s_6 Real)
(declare-const s_7 Real)
(declare-const s_8 Real)
(assert (forall ((c Real) (i Real) ) (=> (and (>= (+ (* 1024 1) (* 1 c ) ) 0) (>= (+ (* 1023 1) (* (- 1) c ) ) 0) (>= (+ (* 1024 1) (* 1 i ) ) 0) (>= (+ (* 1023 1) (* (- 1) i ) ) 0) ) (>= (+ (* 1 c s_1 ) (* 1 i s_2 ) (* 1 s_0 ) ) 0) )))
(assert (forall ((c Real) (i Real) ) (=> (and (>= (+ (* 1024 1) (* 1 c ) ) 0) (>= (+ (* 1023 1) (* (- 1) c ) ) 0) (>= (+ (* 1024 1) (* 1 i ) ) 0) (>= (+ (* 1023 1) (* (- 1) i ) ) 0) ) (>= (+ (* 1 c c_1 ) (* 1 c_0 ) (* 1 c_2 i ) ) 0) )))
(assert (forall ((c Real) (i Real) ) (=> (and (>= (+ (* 1023 1) (* (- 1) i ) ) 0) (>= (+ (* 1024 1) (* 1 i ) ) 0) (>= (+ (* 1023 1) (* (- 1) c ) ) 0) (>= (+ (* 1024 1) (* 1 c ) ) 0) (>= (+ (* 1 c s_1 ) (* 1 i s_2 ) (* 1 s_0 ) ) 0) ) (>= (* 1 s_3 ) 0) )))
(assert (forall ((c Real) (i Real) ) (=> (and (>= (+ (* 1023 1) (* (- 1) i ) ) 0) (>= (+ (* 1024 1) (* 1 i ) ) 0) (>= (+ (* 1023 1) (* (- 1) c ) ) 0) (>= (+ (* 1024 1) (* 1 c ) ) 0) (>= (+ (* 1 c s_1 ) (* 1 i s_2 ) (* 1 s_0 ) ) 0) ) (>= (* 1 c_3 ) 0) )))
(assert (forall ((c Real) (i Real) ) (=> (and (>= (+ (* 1023 1) (* (- 1) i ) ) 0) (>= (+ (* 1024 1) (* 1 i ) ) 0) (>= (+ (* 1023 1) (* (- 1) c ) ) 0) (>= (+ (* 1024 1) (* 1 c ) ) 0) (>= (+ (* 1 c s_1 ) (* 1 i s_2 ) (* 1 s_0 ) ) 0) ) (>= (+ (* (- 1) 1) (* 1 c c_1 ) (* 1 c_0 ) (* 1 c_2 i ) (* (- 1) c_3 ) ) 0) )))
(assert (forall ((c Real) (i Real) ) (=> (and (>= (+ (* 9 1) (* (- 1) i ) ) 0) (>= (+ (* 19 1) (* (- 1) i ) ) 0) (>= (+ (* 10 1) (* 1 c ) (* (- 1) i ) ) 0) (>= (* 1 c ) 0) (>= (+ (* 1 c s_4 ) (* 1 i s_5 ) (* 1 s_3 ) ) 0) ) (>= (+ (* 1 c s_4 ) (* 1 i s_5 ) (* 1 s_3 ) (* 1 s_5 ) ) 0) )))
(assert (forall ((c Real) (i Real) ) (=> (and (>= (+ (* 9 1) (* (- 1) i ) ) 0) (>= (+ (* 19 1) (* (- 1) i ) ) 0) (>= (+ (* 10 1) (* 1 c ) (* (- 1) i ) ) 0) (>= (* 1 c ) 0) (>= (+ (* 1 c s_4 ) (* 1 i s_5 ) (* 1 s_3 ) ) 0) ) (>= (+ (* 1 c c_4 ) (* 1 c_3 ) (* 1 c_5 ) (* 1 c_5 i ) ) 0) )))
(assert (forall ((c Real) (i Real) ) (=> (and (>= (+ (* 9 1) (* (- 1) i ) ) 0) (>= (+ (* 19 1) (* (- 1) i ) ) 0) (>= (+ (* 10 1) (* 1 c ) (* (- 1) i ) ) 0) (>= (* 1 c ) 0) (>= (+ (* 1 c s_4 ) (* 1 i s_5 ) (* 1 s_3 ) ) 0) ) (>= (+ (* (- 1) 1) (* (- 1) c_5 ) ) 0) )))
(assert (forall ((c Real) (i Real) ) (=> (and (>= (+ (* (- 10) 1) (* 1 i ) ) 0) (>= (+ (* 19 1) (* (- 1) i ) ) 0) (>= (+ (* 10 1) (* 1 c ) (* (- 1) i ) ) 0) (>= (* 1 c ) 0) (>= (+ (* 1 c s_4 ) (* 1 i s_5 ) (* 1 s_3 ) ) 0) ) (>= (+ (* 1 c s_4 ) (* 1 i s_5 ) (* 1 s_3 ) (* 1 s_4 ) (* 1 s_5 ) ) 0) )))
(assert (forall ((c Real) (i Real) ) (=> (and (>= (+ (* (- 10) 1) (* 1 i ) ) 0) (>= (+ (* 19 1) (* (- 1) i ) ) 0) (>= (+ (* 10 1) (* 1 c ) (* (- 1) i ) ) 0) (>= (* 1 c ) 0) (>= (+ (* 1 c s_4 ) (* 1 i s_5 ) (* 1 s_3 ) ) 0) ) (>= (+ (* 1 c c_4 ) (* 1 c_3 ) (* 1 c_4 ) (* 1 c_5 ) (* 1 c_5 i ) ) 0) )))
(assert (forall ((c Real) (i Real) ) (=> (and (>= (+ (* (- 10) 1) (* 1 i ) ) 0) (>= (+ (* 19 1) (* (- 1) i ) ) 0) (>= (+ (* 10 1) (* 1 c ) (* (- 1) i ) ) 0) (>= (* 1 c ) 0) (>= (+ (* 1 c s_4 ) (* 1 i s_5 ) (* 1 s_3 ) ) 0) ) (>= (+ (* (- 1) 1) (* (- 1) c_4 ) (* (- 1) c_5 ) ) 0) )))
(assert (forall ((c Real) (i Real) ) (=> (and (>= (+ (* (- 20) 1) (* 1 i ) ) 0) (>= (+ (* 10 1) (* 1 c ) (* (- 1) i ) ) 0) (>= (* 1 c ) 0) (>= (+ (* 1 c s_4 ) (* 1 i s_5 ) (* 1 s_3 ) ) 0) ) (>= (+ (* 1 c s_7 ) (* 1 i s_8 ) (* 1 s_6 ) ) 0) )))
(assert (forall ((c Real) (i Real) ) (=> (and (>= (+ (* (- 20) 1) (* 1 i ) ) 0) (>= (+ (* 10 1) (* 1 c ) (* (- 1) i ) ) 0) (>= (* 1 c ) 0) (>= (+ (* 1 c s_4 ) (* 1 i s_5 ) (* 1 s_3 ) ) 0) ) (>= (+ (* 1 c c_7 ) (* 1 c_6 ) (* 1 c_8 i ) ) 0) )))

(check-sat)
(get-model)
